certificates/rado_a5_c209_N41.drat
-41 0
37 0
-13 0
9 0
17 0
-33 0
29 0
-5 0
1 0
-35 0
-25 0
31 0
39 0
7 0
21 0
0
